250 250 1492068897
167 114 167 83 70 143 120 66 87 69
184 118 152 140 86 166 160 148 141 165
30728 13452 25384 11620 6020 23738 19200 9768 12267 1138522571
40342 13616 24917 11891 7424 30889 25577 8713 11916 1356426270
